
Log started (V12.10.0.0) Sun Apr  4 09:19:35 2021


Problem 'asset.lp' read.
Read time = 0.00 sec. (0.12 ticks)
New value for default parallel thread count: 1
New value for time limit in seconds: 300
Version identifier: 12.10.0.0 | 2019-11-26 | 843d4de
CPXPARAM_Threads                                 1
CPXPARAM_TimeLimit                               300
Found incumbent of value -0.904655 after 0.00 sec. (0.06 ticks)
Tried aggregator 3 times.
MIP Presolve eliminated 531 rows and 443 columns.
MIP Presolve modified 1087 coefficients.
Aggregator did 235 substitutions.
Reduced MIP has 399 rows, 390 columns, and 1547 nonzeros.
Reduced MIP has 310 binaries, 58 generals, 0 SOSs, and 0 indicators.
Presolve time = 0.00 sec. (3.33 ticks)
Probing fixed 64 vars, tightened 18 bounds.
Probing time = 0.00 sec. (0.69 ticks)
Cover probing fixed 0 vars, tightened 27 bounds.
Tried aggregator 2 times.
MIP Presolve eliminated 128 rows and 115 columns.
MIP Presolve modified 2 coefficients.
Aggregator did 1 substitutions.
Reduced MIP has 270 rows, 263 columns, and 847 nonzeros.
Reduced MIP has 213 binaries, 28 generals, 0 SOSs, and 0 indicators.
Presolve time = 0.00 sec. (1.55 ticks)
Probing time = 0.00 sec. (0.30 ticks)
Tried aggregator 1 time.
Detecting symmetries...
Reduced MIP has 270 rows, 263 columns, and 847 nonzeros.
Reduced MIP has 213 binaries, 28 generals, 0 SOSs, and 0 indicators.
Presolve time = 0.00 sec. (0.61 ticks)
Probing time = 0.00 sec. (0.30 ticks)
Clique table members: 121.
MIP emphasis: balance optimality and feasibility.
MIP search method: dynamic search.
Parallel mode: none, using 1 thread.
Root relaxation solution time = 0.00 sec. (2.29 ticks)

        Nodes                                         Cuts/
   Node  Left     Objective  IInf  Best Integer    Best Bound    ItCnt     Gap

*     0+    0                           -0.9047      218.6134              --- 
      0     0      174.6224   116       -0.9047      174.6224      220     --- 
*     0+    0                          166.5625      174.6224             4.84%
      0     0      174.2775   116      166.5625      Cuts: 72      291    4.63%
*     0+    0                          174.2573      174.2775             0.01%
      0     0      174.2751   116      174.2573      Cuts: 82      381    0.01%
*     0+    0                          174.2588      174.2751             0.01%

Clique cuts applied:  2
Implied bound cuts applied:  22
Flow cuts applied:  3
Zero-half cuts applied:  5
Lift and project cuts applied:  3
Gomory fractional cuts applied:  20

Root node processing (before b&c):
  Real time             =    0.03 sec. (25.04 ticks)
Sequential b&c:
  Real time             =    0.00 sec. (0.00 ticks)
                          ------------
Total (root+branch&cut) =    0.03 sec. (25.04 ticks)

Solution pool: 4 solutions saved.

MIP - Integer optimal, tolerance (0.0001/1e-06):  Objective =  1.7425883573e+02
Current MIP best bound =  1.7427509780e+02 (gap = 0.0162621, 0.01%)
Solution time =    0.03 sec.  Iterations = 381  Nodes = 0 (1)
Deterministic time = 25.04 ticks  (838.76 ticks/sec)


Incumbent solution
Variable Name           Solution Value
F                           190.000000
f1                            0.941164
f2                           14.800000
y37                           1.000000
y42                           1.000000
y81                           1.000000
y220                          1.000000
y96                           1.000000
y12                           1.000000
y228                          1.000000
y147                          1.000000
y2                            1.000000
y115                          1.000000
y19                           1.000000
y87                           1.000000
y153                          1.000000
y176                          1.000000
s37                           6.669332
s38                           6.000000
s39                           6.000000
s41                           6.000000
s43                           6.000000
s47                           6.000000
s58                           6.000000
s62                           6.000000
s64                           6.000000
s67                           6.000000
s84                           6.000000
s86                           6.000000
s93                           6.000000
s122                          6.000000
s131                          6.000000
s141                          6.000000
s150                          6.000000
s170                          6.000000
s184                          6.000000
s190                          6.000000
s209                          6.000000
s214                          6.000000
s42                           7.009125
s32                           6.200000
s81                           7.070000
s140                          6.220000
s90                           6.230000
s78                           6.240000
s236                          6.240000
s220                          7.080113
s165                          6.410000
s96                           7.255537
s12                           7.263658
s68                           6.460000
s228                          7.194353
s147                          7.403697
s2                            7.475404
s115                          7.416219
s77                           6.600000
s19                           7.213209
s87                           7.356658
s153                          7.499136
s176                          7.123138
x88x19x1                      1.000000
x61x147x1                     1.000000
x61x115x1                     1.000000
x34x176x1                     1.000000
x85x115x1                     1.000000
x196x228x1                    1.000000
x196x87x1                     1.000000
x142x19x1                     1.000000
x8x176x1                      1.000000
x88x228x2                     1.000000
x5x153x2                      1.000000
x109x153x2                    1.000000
x76x42x2                      1.000000
x8x81x2                       1.000000
x204x37x2                     1.000000
x204x42x2                     1.000000
x124x2x2                      1.000000
x34x220x3                     1.000000
x5x2x3                        1.000000
x85x37x3                      1.000000
x109x96x3                     1.000000
x142x96x3                     1.000000
x76x220x3                     1.000000
x16x81x3                      1.000000
x16x147x3                     1.000000
x125x12x3                     1.000000
x125x87x3                     1.000000
x137x12x3                     1.000000
x37x0x2                       1.000000
x37x0x3                       1.000000
x42x0x2                       2.000000
x81x0x2                       1.000000
x81x0x3                       1.000000
x220x0x3                      2.000000
x96x0x3                       2.000000
x12x0x3                       2.000000
x228x0x1                      1.000000
x228x0x2                      1.000000
x147x0x1                      1.000000
x147x0x3                      1.000000
x2x0x2                        1.000000
x2x0x3                        1.000000
x115x0x1                      2.000000
x19x0x1                       2.000000
x87x0x1                       1.000000
x87x0x3                       1.000000
x153x0x2                      2.000000
x176x0x1                      2.000000
s88                           5.148473
z88z228z2                     1.000000
z88z19z1                      1.000000
s61                           5.139639
z61z147z1                     1.000000
z61z115z1                     1.000000
s34                           5.146238
z34z220z3                     1.000000
z34z176z1                     1.000000
s5                            5.195266
z5z2z3                        1.000000
z5z153z2                      1.000000
s85                           5.164777
z85z37z3                      1.000000
z85z115z1                     1.000000
s196                          5.359857
z196z228z1                    1.000000
z196z87z1                     1.000000
s109                          5.844553
z109z96z3                     1.000000
z109z153z2                    1.000000
s142                          5.882626
z142z96z3                     1.000000
z142z19z1                     1.000000
s76                           5.534214
z76z42z2                      1.000000
z76z220z3                     1.000000
s8                            5.576978
z8z81z2                       1.000000
z8z176z1                      1.000000
s204                          5.279254
z204z37z2                     1.000000
z204z42z2                     1.000000
s16                           5.550000
z16z81z3                      1.000000
z16z147z3                     1.000000
s125                          5.760000
z125z12z3                     1.000000
z125z87z3                     1.000000
s124                          5.959740
z124z2z2                      1.000000
s137                          5.990000
z137z12z3                     1.000000
All other variables in the range 1-1072 are 0.
